c colouring generated by benchmark framework
p edge 81 1056
v 1 6
v 2 8
v 3 3
v 4 5
v 5 4
v 6 9
v 7 1
v 8 7
v 9 10
v 10 7
v 11 10
v 12 0
v 13 6
v 14 8
v 15 2
v 16 4
v 17 5
v 18 9
v 19 5
v 20 4
v 21 1
v 22 2
v 23 9
v 24 3
v 25 8
v 26 0
v 27 7
v 28 3
v 29 7
v 30 10
v 31 8
v 32 5
v 33 4
v 34 2
v 35 1
v 36 6
v 37 8
v 38 6
v 39 4
v 40 1
v 41 2
v 42 7
v 43 5
v 44 9
v 45 0
v 46 1
v 47 5
v 48 8
v 49 3
v 50 6
v 51 0
v 52 10
v 53 2
v 54 4
v 55 0
v 56 2
v 57 7
v 58 4
v 59 10
v 60 5
v 61 9
v 62 6
v 63 8
v 64 10
v 65 1
v 66 5
v 67 9
v 68 7
v 69 8
v 70 0
v 71 4
v 72 3
v 73 9
v 74 3
v 75 2
v 76 0
v 77 1
v 78 10
v 79 6
v 80 8
v 81 5
